HUN,8,6,909
5,23,1,23,0,27,4,30,2,28,3,27
2,30,3,25,5,30,0,25,1,29,4,29
5,29,0,30,2,27,4,21,3,30,1,23
4,29,0,22,5,27,1,30,3,29,2,30
4,25,5,24,0,22,3,21,1,30,2,24
1,29,0,22,5,23,2,26,4,24,3,23
2,24,5,24,3,27,4,30,1,23,0,22
3,29,2,24,0,21,5,24,4,24,1,30
